10  5
  0  99  1  73  2  84  3  37  4  94
  0  91  1  10  2  72  3  64  4  81
  0  94  1  94  2  96  3  99  4  35
  0  29  1  3  2  22  3  74  4  8
  0  17  1  32  2  26  3  33  4  6
  0  41  1  32  2  26  3  50  4  4
  0  7  1  54  2  5  3  14  4  4
  0  46  1  61  2  15  3  14  4  3
  0  63  1  49  2  88  3  84  4  33
  0  24  1  46  2  39  3  38  4  83
